tsp_instances/TSP20/instance47.tsp
NODE_COORD_SECTION
0 59 81
1 43 168
2 178 156
3 198 37
4 89 2
5 103 179
6 167 79
7 174 190
8 157 181
9 0 32
10 147 0
11 51 112
12 152 37
13 69 157
14 30 121
15 53 173
16 30 102
17 103 163
18 45 43
19 167 158
