tsp_instances/TSP20/instance47.opt.tour
TOUR_SECTION
1
12
17
15
2
16
14
18
6
9
8
20
3
7
4
13
11
5
10
19
-1